Route #1: 0 13 49 48 27 21 26 6 0
Route #2: 0 41 29 37 7 24 53 25 0
Route #3: 0 3 33 32 36 35 16 52 1 0
Route #4: 0 45 42 47 39 4 15 43 0
Route #5: 0 19 18 46 8 14 50 38 51 0
Route #6: 0 10 17 44 23 22 9 12 5 40 28 0
Route #7: 0 2 54 34 30 31 20 55 11 0
Cost 825:
